outputs/case_398.model.txt
role_broker = True
role_agent = False
role_notary = False
liability_insurance = False
liability_and_guarantee_insurance = False
broker_provide_written_report = True
none = False
authority_defined_minimum_and_implementation = True
authority_defined_qualification_and_management_rules = True
authority_defined_report_scope_and_fee_standard = True
bank_authority_permitted = False
bank_operate_agent = False
bank_operate_broker = False
broker_charge_fee = False
broker_exercise_duty_of_care = True
broker_exercise_fidelity = True
broker_disclose_fee_standard = False
related_insurance_purchased = True
guarantee_deposit_paid = True
license_permitted = True
penalty = False
broker_duty_of_care_and_fidelity = True
authority_define_report_scope_and_fee_standard = True
qualification_and_management_rules = True
related_insurance_type = False
bank_permitted_to_operate_agent_or_broker = False
agent_broker_notary_license_and_guarantee = True
practice_certificate_held = True
broker_provide_written_report_and_disclose_fee = True
minimum_amount_and_implementation = True